
Gurobi 9.5.2 (win64) logging started Fri Jun  7 14:46:00 2024

Set parameter LogFile to value "./ccga_results/2024-06-07 14-45-58-875/MSP_TimeStampConvert_gurobi_log.txt"
Set parameter TimeLimit to value 35998

Gurobi 9.5.2 (win64) logging started Fri Jun  7 14:46:00 2024

Set parameter LogFile to value "./ccga_results/2024-06-07 14-45-58-875/MSP_TimeStampConvert_gurobi_log.txt"
Set parameter TimeLimit to value 35998
Gurobi Optimizer version 9.5.2 build v9.5.2rc0 (win64)
Thread count: 10 physical cores, 20 logical processors, using up to 20 threads
Optimize a model with 600 rows, 457 columns and 1482 nonzeros
Model fingerprint: 0xe63f0f4b
Variable types: 25 continuous, 432 integer (432 binary)
Coefficient statistics:
  Matrix range     [1e+00, 1e+00]
  Objective range  [1e+00, 1e+00]
  Bounds range     [1e+03, 1e+03]
  RHS range        [1e+00, 1e+00]
Found heuristic solution: objective 24000.000000

Explored 0 nodes (0 simplex iterations) in 0.00 seconds (0.00 work units)
Thread count was 1 (of 20 available processors)

Solution count 1: 24000 

Optimal solution found (tolerance 1.00e-02)
Best objective 2.400000000000e+04, best bound 2.400000000000e+04, gap 0.0000%

User-callback calls 21, time in user-callback 0.00 sec
Set parameter TimeLimit to value 35997
Gurobi Optimizer version 9.5.2 build v9.5.2rc0 (win64)
Thread count: 10 physical cores, 20 logical processors, using up to 20 threads
Optimize a model with 2161 rows, 961 columns and 6641 nonzeros
Model fingerprint: 0x5d0b9dd3
Variable types: 481 continuous, 480 integer (480 binary)
Coefficient statistics:
  Matrix range     [1e-02, 5e+03]
  Objective range  [1e+00, 1e+00]
  Bounds range     [1e+03, 1e+03]
  RHS range        [1e+00, 2e+03]

MIP start from previous solve did not produce a new incumbent solution

Found heuristic solution: objective 23000.000000
Presolve removed 1205 rows and 373 columns
Presolve time: 0.02s
Presolved: 956 rows, 588 columns, 3582 nonzeros
Variable types: 238 continuous, 350 integer (350 binary)

Root relaxation: objective 2.395000e+04, 27 iterations, 0.00 seconds (0.00 work units)

    Nodes    |    Current Node    |     Objective Bounds      |     Work
 Expl Unexpl |  Obj  Depth IntInf | Incumbent    BestBd   Gap | It/Node Time

*    0     0               0    23950.000000 23950.0000  0.00%     -    0s

Explored 1 nodes (27 simplex iterations) in 0.02 seconds (0.02 work units)
Thread count was 20 (of 20 available processors)

Solution count 2: 23950 23000 

Optimal solution found (tolerance 1.00e-02)
Best objective 2.395000000000e+04, best bound 2.395000000000e+04, gap 0.0000%

User-callback calls 1011, time in user-callback 0.00 sec
Gurobi Optimizer version 9.5.2 build v9.5.2rc0 (win64)
Thread count: 10 physical cores, 20 logical processors, using up to 20 threads
Optimize a model with 3722 rows, 1465 columns and 11800 nonzeros
Model fingerprint: 0x5e28fb33
Variable types: 937 continuous, 528 integer (528 binary)
Coefficient statistics:
  Matrix range     [1e-02, 5e+03]
  Objective range  [1e+00, 1e+00]
  Bounds range     [1e+03, 1e+03]
  RHS range        [1e+00, 2e+03]

MIP start from previous solve did not produce a new incumbent solution

Presolve removed 2270 rows and 659 columns
Presolve time: 0.02s
Presolved: 1452 rows, 806 columns, 6020 nonzeros
Variable types: 456 continuous, 350 integer (350 binary)
Found heuristic solution: objective 19736.111111
Found heuristic solution: objective 21591.111111

Root relaxation: objective 2.395000e+04, 326 iterations, 0.02 seconds (0.00 work units)

    Nodes    |    Current Node    |     Objective Bounds      |     Work
 Expl Unexpl |  Obj  Depth IntInf | Incumbent    BestBd   Gap | It/Node Time

H    0     0                    23950.000000 23950.0000  0.00%     -    0s
     0     0 23950.0000    0   19 23950.0000 23950.0000  0.00%     -    0s

Explored 1 nodes (326 simplex iterations) in 0.03 seconds (0.04 work units)
Thread count was 20 (of 20 available processors)

Solution count 3: 23950 21591.1 19736.1 

Optimal solution found (tolerance 1.00e-02)
Best objective 2.395000000000e+04, best bound 2.395000000000e+04, gap 0.0000%

User-callback calls 1152, time in user-callback 0.00 sec
Gurobi Optimizer version 9.5.2 build v9.5.2rc0 (win64)
Thread count: 10 physical cores, 20 logical processors, using up to 20 threads
Optimize a model with 5283 rows, 1969 columns and 16959 nonzeros
Model fingerprint: 0xd26b0bb0
Variable types: 1393 continuous, 576 integer (576 binary)
Coefficient statistics:
  Matrix range     [1e-02, 5e+03]
  Objective range  [1e+00, 1e+00]
  Bounds range     [1e+03, 1e+03]
  RHS range        [1e+00, 2e+03]

MIP start from previous solve did not produce a new incumbent solution

Presolve removed 3335 rows and 947 columns
Presolve time: 0.03s
Presolved: 1948 rows, 1022 columns, 8455 nonzeros
Variable types: 672 continuous, 350 integer (350 binary)
Found heuristic solution: objective 17247.222222
Found heuristic solution: objective 21591.111111

Root relaxation: objective 2.395000e+04, 719 iterations, 0.02 seconds (0.01 work units)

    Nodes    |    Current Node    |     Objective Bounds      |     Work
 Expl Unexpl |  Obj  Depth IntInf | Incumbent    BestBd   Gap | It/Node Time

H    0     0                    23950.000000 23950.0000  0.00%     -    0s
     0     0 23950.0000    0   63 23950.0000 23950.0000  0.00%     -    0s

Explored 1 nodes (719 simplex iterations) in 0.05 seconds (0.07 work units)
Thread count was 20 (of 20 available processors)

Solution count 3: 23950 21591.1 17247.2 

Optimal solution found (tolerance 1.00e-02)
Best objective 2.395000000000e+04, best bound 2.395000000000e+04, gap 0.0000%

User-callback calls 1135, time in user-callback 0.00 sec
Gurobi Optimizer version 9.5.2 build v9.5.2rc0 (win64)
Thread count: 10 physical cores, 20 logical processors, using up to 20 threads
Optimize a model with 6844 rows, 2473 columns and 22118 nonzeros
Model fingerprint: 0x99c9ced1
Variable types: 1849 continuous, 624 integer (624 binary)
Coefficient statistics:
  Matrix range     [1e-02, 5e+03]
  Objective range  [1e+00, 1e+00]
  Bounds range     [1e+03, 1e+03]
  RHS range        [1e+00, 2e+03]

MIP start from previous solve did not produce a new incumbent solution

Presolve removed 4396 rows and 1231 columns
Presolve time: 0.04s
Presolved: 2448 rows, 1242 columns, 10574 nonzeros
Variable types: 888 continuous, 354 integer (350 binary)
Found heuristic solution: objective 14987.777778
Found heuristic solution: objective 21591.111111

Root relaxation: objective 2.395000e+04, 1097 iterations, 0.02 seconds (0.04 work units)

    Nodes    |    Current Node    |     Objective Bounds      |     Work
 Expl Unexpl |  Obj  Depth IntInf | Incumbent    BestBd   Gap | It/Node Time

     0     0 23950.0000    0   11 21591.1111 23950.0000  10.9%     -    0s
H    0     0                    23731.111111 23950.0000  0.92%     -    0s

Explored 1 nodes (2073 simplex iterations) in 0.12 seconds (0.15 work units)
Thread count was 20 (of 20 available processors)

Solution count 3: 23731.1 21591.1 14987.8 

Optimal solution found (tolerance 1.00e-02)
Best objective 2.373111111111e+04, best bound 2.395000000000e+04, gap 0.9224%

User-callback calls 1127, time in user-callback 0.00 sec
Gurobi Optimizer version 9.5.2 build v9.5.2rc0 (win64)
Thread count: 10 physical cores, 20 logical processors, using up to 20 threads
Optimize a model with 8405 rows, 2977 columns and 27277 nonzeros
Model fingerprint: 0xc849b873
Variable types: 2305 continuous, 672 integer (672 binary)
Coefficient statistics:
  Matrix range     [1e-02, 5e+03]
  Objective range  [1e+00, 1e+00]
  Bounds range     [1e+03, 1e+03]
  RHS range        [1e+00, 2e+03]

MIP start from previous solve produced solution with objective 22231.1 (0.02s)
Loaded MIP start from previous solve with objective 22231.1

Presolve removed 5461 rows and 1519 columns
Presolve time: 0.03s
Presolved: 2944 rows, 1458 columns, 12901 nonzeros
Variable types: 1104 continuous, 354 integer (350 binary)

Root relaxation: objective 2.395000e+04, 1301 iterations, 0.03 seconds (0.06 work units)

    Nodes    |    Current Node    |     Objective Bounds      |     Work
 Expl Unexpl |  Obj  Depth IntInf | Incumbent    BestBd   Gap | It/Node Time

     0     0 23950.0000    0   21 22231.1111 23950.0000  7.73%     -    0s
H    0     0                    23291.111111 23950.0000  2.83%     -    0s
H    0     0                    23731.111111 23950.0000  0.92%     -    0s

Explored 1 nodes (1840 simplex iterations) in 0.13 seconds (0.19 work units)
Thread count was 20 (of 20 available processors)

Solution count 3: 23731.1 23291.1 22231.1 

Optimal solution found (tolerance 1.00e-02)
Best objective 2.373111111111e+04, best bound 2.395000000000e+04, gap 0.9224%

User-callback calls 1044, time in user-callback 0.00 sec
Set parameter TimeLimit to value 35996
Gurobi Optimizer version 9.5.2 build v9.5.2rc0 (win64)
Thread count: 10 physical cores, 20 logical processors, using up to 20 threads
Optimize a model with 9966 rows, 3481 columns and 32436 nonzeros
Model fingerprint: 0xfa914372
Variable types: 2761 continuous, 720 integer (720 binary)
Coefficient statistics:
  Matrix range     [1e-02, 5e+03]
  Objective range  [1e+00, 1e+00]
  Bounds range     [1e+03, 1e+03]
  RHS range        [1e+00, 2e+03]

MIP start from previous solve produced solution with objective 22781.1 (0.02s)
Loaded MIP start from previous solve with objective 22781.1

Presolve removed 6516 rows and 1797 columns
Presolve time: 0.05s
Presolved: 3450 rows, 1684 columns, 14733 nonzeros
Variable types: 1320 continuous, 364 integer (350 binary)

Root relaxation: objective 2.395000e+04, 1472 iterations, 0.05 seconds (0.08 work units)

    Nodes    |    Current Node    |     Objective Bounds      |     Work
 Expl Unexpl |  Obj  Depth IntInf | Incumbent    BestBd   Gap | It/Node Time

     0     0 23950.0000    0   16 22781.1111 23950.0000  5.13%     -    0s
H    0     0                    23726.111111 23950.0000  0.94%     -    0s

Explored 1 nodes (2269 simplex iterations) in 0.18 seconds (0.24 work units)
Thread count was 20 (of 20 available processors)

Solution count 2: 23726.1 22781.1 

Optimal solution found (tolerance 1.00e-02)
Best objective 2.372611111111e+04, best bound 2.395000000000e+04, gap 0.9436%

User-callback calls 1073, time in user-callback 0.00 sec
Gurobi Optimizer version 9.5.2 build v9.5.2rc0 (win64)
Thread count: 10 physical cores, 20 logical processors, using up to 20 threads
Optimize a model with 11527 rows, 3985 columns and 37595 nonzeros
Model fingerprint: 0x17a896ae
Variable types: 3217 continuous, 768 integer (768 binary)
Coefficient statistics:
  Matrix range     [1e-02, 5e+03]
  Objective range  [1e+00, 1e+00]
  Bounds range     [1e+03, 1e+03]
  RHS range        [1e+00, 2e+03]

MIP start from previous solve did not produce a new incumbent solution

Presolve removed 7581 rows and 2085 columns
Presolve time: 0.05s
Presolved: 3946 rows, 1900 columns, 16957 nonzeros
Variable types: 1536 continuous, 364 integer (350 binary)
Found heuristic solution: objective 13032.222222

Root relaxation: objective 2.395000e+04, 2376 iterations, 0.13 seconds (0.25 work units)

    Nodes    |    Current Node    |     Objective Bounds      |     Work
 Expl Unexpl |  Obj  Depth IntInf | Incumbent    BestBd   Gap | It/Node Time

     0     0 23950.0000    0   38 13032.2222 23950.0000  83.8%     -    0s
H    0     0                    23541.111111 23950.0000  1.74%     -    0s
H    0     0                    23641.111111 23950.0000  1.31%     -    0s
     0     0 23950.0000    0  118 23641.1111 23950.0000  1.31%     -    0s
     0     0 23950.0000    0  104 23641.1111 23950.0000  1.31%     -    0s
H    0     0                    23741.111111 23950.0000  0.88%     -    0s

Cutting planes:
  Gomory: 7
  Cover: 25
  Implied bound: 7
  MIR: 69
  Flow cover: 117
  Relax-and-lift: 6

Explored 1 nodes (4156 simplex iterations) in 0.45 seconds (0.67 work units)
Thread count was 20 (of 20 available processors)

Solution count 4: 23741.1 23641.1 23541.1 13032.2 

Optimal solution found (tolerance 1.00e-02)
Best objective 2.374111111111e+04, best bound 2.395000000000e+04, gap 0.8799%

User-callback calls 1152, time in user-callback 0.00 sec
Set parameter TimeLimit to value 35995
Gurobi Optimizer version 9.5.2 build v9.5.2rc0 (win64)
Thread count: 10 physical cores, 20 logical processors, using up to 20 threads
Optimize a model with 13088 rows, 4489 columns and 42754 nonzeros
Model fingerprint: 0x6094d794
Variable types: 3673 continuous, 816 integer (816 binary)
Coefficient statistics:
  Matrix range     [1e-02, 5e+03]
  Objective range  [1e+00, 1e+00]
  Bounds range     [1e+03, 1e+03]
  RHS range        [1e+00, 2e+03]

MIP start from previous solve produced solution with objective 23691.1 (0.01s)
Loaded MIP start from previous solve with objective 23691.1

Presolve removed 8722 rows and 2382 columns
Presolve time: 0.09s
Presolved: 4366 rows, 2107 columns, 18900 nonzeros
Variable types: 1752 continuous, 355 integer (341 binary)

Root relaxation: objective 2.395000e+04, 2437 iterations, 0.13 seconds (0.24 work units)

    Nodes    |    Current Node    |     Objective Bounds      |     Work
 Expl Unexpl |  Obj  Depth IntInf | Incumbent    BestBd   Gap | It/Node Time

     0     0 23950.0000    0   40 23691.1111 23950.0000  1.09%     -    0s
     0     0 23950.0000    0  112 23691.1111 23950.0000  1.09%     -    0s
     0     0 23950.0000    0   98 23691.1111 23950.0000  1.09%     -    0s
     0     0 23921.3618    0  152 23691.1111 23921.3618  0.97%     -    0s

Cutting planes:
  Gomory: 9
  Cover: 12
  Implied bound: 8
  MIR: 82
  Flow cover: 139
  Relax-and-lift: 3

Explored 1 nodes (4493 simplex iterations) in 0.57 seconds (0.85 work units)
Thread count was 20 (of 20 available processors)

Solution count 1: 23691.1 

Optimal solution found (tolerance 1.00e-02)
Best objective 2.369111111111e+04, best bound 2.392136182681e+04, gap 0.9719%

User-callback calls 1216, time in user-callback 0.00 sec
Set parameter TimeLimit to value 35994
Gurobi Optimizer version 9.5.2 build v9.5.2rc0 (win64)
Thread count: 10 physical cores, 20 logical processors, using up to 20 threads
Optimize a model with 14649 rows, 4993 columns and 47913 nonzeros
Model fingerprint: 0x9b89b0d7
Variable types: 4129 continuous, 864 integer (864 binary)
Coefficient statistics:
  Matrix range     [1e-02, 5e+03]
  Objective range  [1e+00, 1e+00]
  Bounds range     [1e+03, 1e+03]
  RHS range        [1e+00, 2e+03]

MIP start from previous solve produced solution with objective 23652.2 (0.02s)
Loaded MIP start from previous solve with objective 23652.2

Presolve removed 9795 rows and 2670 columns
Presolve time: 0.10s
Presolved: 4854 rows, 2323 columns, 21093 nonzeros
Variable types: 1968 continuous, 355 integer (341 binary)

Root relaxation: objective 2.395000e+04, 2708 iterations, 0.14 seconds (0.26 work units)

    Nodes    |    Current Node    |     Objective Bounds      |     Work
 Expl Unexpl |  Obj  Depth IntInf | Incumbent    BestBd   Gap | It/Node Time

     0     0 23950.0000    0   39 23652.2222 23950.0000  1.26%     -    0s
     0     0 23950.0000    0  109 23652.2222 23950.0000  1.26%     -    0s
     0     0 23950.0000    0  102 23652.2222 23950.0000  1.26%     -    0s
     0     0 23891.1111    0  134 23652.2222 23891.1111  1.01%     -    0s
H    0     0                    23691.111111 23891.1111  0.84%     -    0s
H    0     0                    23741.111111 23891.1111  0.63%     -    0s
     0     0 23891.1111    0  159 23741.1111 23891.1111  0.63%     -    0s

Cutting planes:
  Gomory: 1
  Cover: 9
  Implied bound: 4
  MIR: 55
  Flow cover: 129
  Relax-and-lift: 8

Explored 1 nodes (7404 simplex iterations) in 0.77 seconds (1.23 work units)
Thread count was 20 (of 20 available processors)

Solution count 3: 23741.1 23691.1 23652.2 

Optimal solution found (tolerance 1.00e-02)
Best objective 2.374111111111e+04, best bound 2.389111111111e+04, gap 0.6318%

User-callback calls 1204, time in user-callback 0.00 sec
Set parameter TimeLimit to value 35993
Gurobi Optimizer version 9.5.2 build v9.5.2rc0 (win64)
Thread count: 10 physical cores, 20 logical processors, using up to 20 threads
Optimize a model with 16210 rows, 5497 columns and 53072 nonzeros
Model fingerprint: 0xbcc88de2
Variable types: 4585 continuous, 912 integer (912 binary)
Coefficient statistics:
  Matrix range     [1e-02, 5e+03]
  Objective range  [1e+00, 1e+00]
  Bounds range     [1e+03, 1e+03]
  RHS range        [1e+00, 2e+03]

MIP start from previous solve produced solution with objective 23602.2 (0.02s)
Loaded MIP start from previous solve with objective 23602.2

Presolve removed 10868 rows and 2958 columns
Presolve time: 0.11s
Presolved: 5342 rows, 2539 columns, 23286 nonzeros
Variable types: 2184 continuous, 355 integer (341 binary)

Root relaxation: objective 2.395000e+04, 3137 iterations, 0.13 seconds (0.25 work units)

    Nodes    |    Current Node    |     Objective Bounds      |     Work
 Expl Unexpl |  Obj  Depth IntInf | Incumbent    BestBd   Gap | It/Node Time

     0     0 23950.0000    0   41 23602.2222 23950.0000  1.47%     -    0s
H    0     0                    23691.111111 23950.0000  1.09%     -    0s
     0     0 23950.0000    0  114 23691.1111 23950.0000  1.09%     -    0s
     0     0 23950.0000    0  124 23691.1111 23950.0000  1.09%     -    0s
     0     0 23917.8030    0  124 23691.1111 23917.8030  0.96%     -    0s

Cutting planes:
  Gomory: 9
  Cover: 10
  Implied bound: 8
  MIR: 81
  Flow cover: 166
  Relax-and-lift: 5

Explored 1 nodes (5559 simplex iterations) in 0.71 seconds (1.03 work units)
Thread count was 20 (of 20 available processors)

Solution count 2: 23691.1 23602.2 

Optimal solution found (tolerance 1.00e-02)
Best objective 2.369111111111e+04, best bound 2.391780304324e+04, gap 0.9569%

User-callback calls 1216, time in user-callback 0.00 sec
Set parameter TimeLimit to value 35991
Gurobi Optimizer version 9.5.2 build v9.5.2rc0 (win64)
Thread count: 10 physical cores, 20 logical processors, using up to 20 threads
Optimize a model with 17771 rows, 6001 columns and 58231 nonzeros
Model fingerprint: 0x5839a62c
Variable types: 5041 continuous, 960 integer (960 binary)
Coefficient statistics:
  Matrix range     [1e-02, 5e+03]
  Objective range  [1e+00, 1e+00]
  Bounds range     [1e+03, 1e+03]
  RHS range        [1e+00, 2e+03]

MIP start from previous solve produced solution with objective 23691.1 (0.02s)
Loaded MIP start from previous solve with objective 23691.1

Presolve removed 11941 rows and 3246 columns
Presolve time: 0.14s
Presolved: 5830 rows, 2755 columns, 25479 nonzeros
Variable types: 2400 continuous, 355 integer (341 binary)

Root relaxation: objective 2.395000e+04, 3638 iterations, 0.21 seconds (0.42 work units)

    Nodes    |    Current Node    |     Objective Bounds      |     Work
 Expl Unexpl |  Obj  Depth IntInf | Incumbent    BestBd   Gap | It/Node Time

     0     0 23950.0000    0   54 23691.1111 23950.0000  1.09%     -    0s
H    0     0                    23706.111111 23950.0000  1.03%     -    0s
     0     0 23950.0000    0  120 23706.1111 23950.0000  1.03%     -    0s
     0     0 23950.0000    0  114 23706.1111 23950.0000  1.03%     -    0s

Cutting planes:
  Gomory: 3
  Cover: 13
  Implied bound: 15
  MIR: 86
  Flow cover: 166
  Relax-and-lift: 8

Explored 1 nodes (5643 simplex iterations) in 0.78 seconds (1.18 work units)
Thread count was 20 (of 20 available processors)

Solution count 2: 23706.1 23691.1 

Optimal solution found (tolerance 1.00e-02)
Best objective 2.370611111111e+04, best bound 2.393937183511e+04, gap 0.9840%

User-callback calls 1238, time in user-callback 0.00 sec
Set parameter TimeLimit to value 35990
Gurobi Optimizer version 9.5.2 build v9.5.2rc0 (win64)
Thread count: 10 physical cores, 20 logical processors, using up to 20 threads
Optimize a model with 19332 rows, 6505 columns and 63390 nonzeros
Model fingerprint: 0x7358b5a9
Variable types: 5497 continuous, 1008 integer (1008 binary)
Coefficient statistics:
  Matrix range     [1e-02, 5e+03]
  Objective range  [1e+00, 1e+00]
  Bounds range     [1e+03, 1e+03]
  RHS range        [1e+00, 2e+03]

MIP start from previous solve produced solution with objective 23606.1 (0.02s)
Loaded MIP start from previous solve with objective 23606.1

Presolve removed 13014 rows and 3534 columns
Presolve time: 0.14s
Presolved: 6318 rows, 2971 columns, 27672 nonzeros
Variable types: 2616 continuous, 355 integer (341 binary)

Root relaxation: objective 2.395000e+04, 3876 iterations, 0.25 seconds (0.52 work units)

    Nodes    |    Current Node    |     Objective Bounds      |     Work
 Expl Unexpl |  Obj  Depth IntInf | Incumbent    BestBd   Gap | It/Node Time

     0     0 23950.0000    0   44 23606.1111 23950.0000  1.46%     -    0s
H    0     0                    23691.111111 23950.0000  1.09%     -    0s
     0     0 23950.0000    0  112 23691.1111 23950.0000  1.09%     -    0s
     0     0 23950.0000    0  109 23691.1111 23950.0000  1.09%     -    0s
     0     0 23921.8542    0  163 23691.1111 23921.8542  0.97%     -    0s

Cutting planes:
  Gomory: 3
  Cover: 16
  Implied bound: 14
  MIR: 86
  Flow cover: 209
  GUB cover: 1
  Relax-and-lift: 10

Explored 1 nodes (7593 simplex iterations) in 0.93 seconds (1.50 work units)
Thread count was 20 (of 20 available processors)

Solution count 2: 23691.1 23606.1 

Optimal solution found (tolerance 1.00e-02)
Best objective 2.369111111111e+04, best bound 2.392185419894e+04, gap 0.9740%

User-callback calls 1256, time in user-callback 0.00 sec
Set parameter TimeLimit to value 35988
Gurobi Optimizer version 9.5.2 build v9.5.2rc0 (win64)
Thread count: 10 physical cores, 20 logical processors, using up to 20 threads
Optimize a model with 20893 rows, 7009 columns and 68549 nonzeros
Model fingerprint: 0x5fde0843
Variable types: 5953 continuous, 1056 integer (1056 binary)
Coefficient statistics:
  Matrix range     [1e-02, 5e+03]
  Objective range  [1e+00, 1e+00]
  Bounds range     [1e+03, 1e+03]
  RHS range        [1e+00, 2e+03]

MIP start from previous solve produced solution with objective 23662.2 (0.02s)
Loaded MIP start from previous solve with objective 23662.2

Presolve removed 14061 rows and 3822 columns
Presolve time: 0.16s
Presolved: 6832 rows, 3187 columns, 29943 nonzeros
Variable types: 2832 continuous, 355 integer (341 binary)

Root relaxation: objective 2.395000e+04, 4293 iterations, 0.27 seconds (0.61 work units)

    Nodes    |    Current Node    |     Objective Bounds      |     Work
 Expl Unexpl |  Obj  Depth IntInf | Incumbent    BestBd   Gap | It/Node Time

     0     0 23950.0000    0   59 23662.2222 23950.0000  1.22%     -    0s
     0     0 23950.0000    0  102 23662.2222 23950.0000  1.22%     -    0s
     0     0 23950.0000    0   99 23662.2222 23950.0000  1.22%     -    0s
     0     0 23926.9227    0  143 23662.2222 23926.9227  1.12%     -    1s
H    0     0                    23791.111111 23926.6924  0.57%     -    1s
     0     0 23925.4381    0  133 23791.1111 23925.4381  0.56%     -    1s

Cutting planes:
  Gomory: 1
  Cover: 4
  Implied bound: 7
  MIR: 34
  Flow cover: 124
  Relax-and-lift: 1

Explored 1 nodes (8657 simplex iterations) in 1.16 seconds (2.04 work units)
Thread count was 20 (of 20 available processors)

Solution count 2: 23791.1 23662.2 

Optimal solution found (tolerance 1.00e-02)
Best objective 2.379111111111e+04, best bound 2.392543811397e+04, gap 0.5646%

User-callback calls 1295, time in user-callback 0.00 sec
Set parameter TimeLimit to value 35987
Gurobi Optimizer version 9.5.2 build v9.5.2rc0 (win64)
Thread count: 10 physical cores, 20 logical processors, using up to 20 threads
Optimize a model with 22454 rows, 7513 columns and 73708 nonzeros
Model fingerprint: 0x0406adbe
Variable types: 6409 continuous, 1104 integer (1104 binary)
Coefficient statistics:
  Matrix range     [1e-02, 5e+03]
  Objective range  [1e+00, 1e+00]
  Bounds range     [1e+03, 1e+03]
  RHS range        [1e+00, 2e+03]

MIP start from previous solve produced solution with objective 23691.1 (0.03s)
Loaded MIP start from previous solve with objective 23691.1

Presolve removed 15132 rows and 4110 columns
Presolve time: 0.16s
Presolved: 7322 rows, 3403 columns, 32142 nonzeros
Variable types: 3048 continuous, 355 integer (341 binary)

Root relaxation: objective 2.395000e+04, 4410 iterations, 0.29 seconds (0.66 work units)

    Nodes    |    Current Node    |     Objective Bounds      |     Work
 Expl Unexpl |  Obj  Depth IntInf | Incumbent    BestBd   Gap | It/Node Time

     0     0 23950.0000    0   56 23691.1111 23950.0000  1.09%     -    0s
H    0     0                    23741.111111 23950.0000  0.88%     -    0s

Explored 1 nodes (5655 simplex iterations) in 0.62 seconds (1.12 work units)
Thread count was 20 (of 20 available processors)

Solution count 2: 23741.1 23691.1 

Optimal solution found (tolerance 1.00e-02)
Best objective 2.374111111111e+04, best bound 2.395000000000e+04, gap 0.8799%

User-callback calls 1192, time in user-callback 0.00 sec
Set parameter TimeLimit to value 35985
Gurobi Optimizer version 9.5.2 build v9.5.2rc0 (win64)
Thread count: 10 physical cores, 20 logical processors, using up to 20 threads
Optimize a model with 24015 rows, 8017 columns and 78867 nonzeros
Model fingerprint: 0x53634334
Variable types: 6865 continuous, 1152 integer (1152 binary)
Coefficient statistics:
  Matrix range     [1e-02, 5e+03]
  Objective range  [1e+00, 1e+00]
  Bounds range     [1e+03, 1e+03]
  RHS range        [1e+00, 2e+03]

MIP start from previous solve produced solution with objective 23641.1 (0.03s)
Loaded MIP start from previous solve with objective 23641.1

Presolve removed 16203 rows and 4398 columns
Presolve time: 0.18s
Presolved: 7812 rows, 3619 columns, 34341 nonzeros
Variable types: 3264 continuous, 355 integer (341 binary)

Root relaxation: objective 2.395000e+04, 4676 iterations, 0.34 seconds (0.68 work units)

    Nodes    |    Current Node    |     Objective Bounds      |     Work
 Expl Unexpl |  Obj  Depth IntInf | Incumbent    BestBd   Gap | It/Node Time

     0     0 23950.0000    0   37 23641.1111 23950.0000  1.31%     -    0s
     0     0 23948.3080    0  103 23641.1111 23948.3080  1.30%     -    0s
     0     0 23947.9241    0  102 23641.1111 23947.9241  1.30%     -    0s
     0     0 23947.9228    0  102 23641.1111 23947.9228  1.30%     -    0s
     0     0 23912.1829    0  136 23641.1111 23912.1829  1.15%     -    1s
     0     0 23900.8799    0  152 23641.1111 23900.8799  1.10%     -    1s
     0     0 23899.6203    0  152 23641.1111 23899.6203  1.09%     -    1s
     0     0 23899.0375    0  150 23641.1111 23899.0375  1.09%     -    1s
     0     0 23898.9392    0  153 23641.1111 23898.9392  1.09%     -    1s
     0     0 23898.1214    0  153 23641.1111 23898.1214  1.09%     -    1s
     0     0 23898.0630    0  152 23641.1111 23898.0630  1.09%     -    1s
     0     0 23897.9845    0  152 23641.1111 23897.9845  1.09%     -    1s
     0     0 23897.9845    0  152 23641.1111 23897.9845  1.09%     -    1s
     0     0 23884.1816    0  152 23641.1111 23884.1816  1.03%     -    1s
H    0     0                    23691.111111 23882.3850  0.81%     -    1s
     0     0 23882.3850    0  153 23691.1111 23882.3850  0.81%     -    1s

Cutting planes:
  Gomory: 1
  Cover: 6
  Implied bound: 9
  MIR: 79
  Flow cover: 179
  RLT: 1
  Relax-and-lift: 4

Explored 1 nodes (8782 simplex iterations) in 1.59 seconds (2.50 work units)
Thread count was 20 (of 20 available processors)

Solution count 2: 23691.1 23641.1 

Optimal solution found (tolerance 1.00e-02)
Best objective 2.369111111111e+04, best bound 2.388238502020e+04, gap 0.8074%

User-callback calls 1388, time in user-callback 0.00 sec
Set parameter TimeLimit to value 35983
Gurobi Optimizer version 9.5.2 build v9.5.2rc0 (win64)
Thread count: 10 physical cores, 20 logical processors, using up to 20 threads
Optimize a model with 25576 rows, 8521 columns and 84026 nonzeros
Model fingerprint: 0x0cf3fdc5
Variable types: 7321 continuous, 1200 integer (1200 binary)
Coefficient statistics:
  Matrix range     [1e-02, 5e+03]
  Objective range  [1e+00, 1e+00]
  Bounds range     [1e+03, 1e+03]
  RHS range        [1e+00, 2e+03]

MIP start from previous solve produced solution with objective 23691.1 (0.01s)
Loaded MIP start from previous solve with objective 23691.1

Presolve removed 17274 rows and 4686 columns
Presolve time: 0.18s
Presolved: 8302 rows, 3835 columns, 36540 nonzeros
Variable types: 3480 continuous, 355 integer (341 binary)

Root relaxation: objective 2.395000e+04, 4934 iterations, 0.32 seconds (0.68 work units)

    Nodes    |    Current Node    |     Objective Bounds      |     Work
 Expl Unexpl |  Obj  Depth IntInf | Incumbent    BestBd   Gap | It/Node Time

     0     0 23950.0000    0   33 23691.1111 23950.0000  1.09%     -    0s
     0     0 23947.1978    0  104 23691.1111 23947.1978  1.08%     -    0s
     0     0 23946.6372    0  101 23691.1111 23946.6372  1.08%     -    1s
     0     0 23946.6372    0  101 23691.1111 23946.6372  1.08%     -    1s
     0     0 23903.7438    0  151 23691.1111 23903.7438  0.90%     -    1s

Cutting planes:
  Gomory: 7
  Cover: 8
  Implied bound: 16
  MIR: 103
  Flow cover: 227
  Relax-and-lift: 7

Explored 1 nodes (8763 simplex iterations) in 1.22 seconds (2.03 work units)
Thread count was 20 (of 20 available processors)

Solution count 2: 23691.1 -23691.1 

Optimal solution found (tolerance 1.00e-02)
Best objective 2.369111111111e+04, best bound 2.390374383812e+04, gap 0.8975%

User-callback calls 1302, time in user-callback 0.00 sec
Set parameter TimeLimit to value 35981
Gurobi Optimizer version 9.5.2 build v9.5.2rc0 (win64)
Thread count: 10 physical cores, 20 logical processors, using up to 20 threads
Optimize a model with 27137 rows, 9025 columns and 89185 nonzeros
Model fingerprint: 0x165f9a22
Variable types: 7777 continuous, 1248 integer (1248 binary)
Coefficient statistics:
  Matrix range     [1e-02, 5e+03]
  Objective range  [1e+00, 1e+00]
  Bounds range     [1e+03, 1e+03]
  RHS range        [1e+00, 2e+03]

MIP start from previous solve produced solution with objective 23652.2 (0.01s)
Loaded MIP start from previous solve with objective 23652.2

Presolve removed 18345 rows and 4974 columns
Presolve time: 0.20s
Presolved: 8792 rows, 4051 columns, 38739 nonzeros
Variable types: 3696 continuous, 355 integer (341 binary)

Root relaxation: objective 2.395000e+04, 4971 iterations, 0.37 seconds (0.80 work units)

    Nodes    |    Current Node    |     Objective Bounds      |     Work
 Expl Unexpl |  Obj  Depth IntInf | Incumbent    BestBd   Gap | It/Node Time

     0     0 23950.0000    0   50 23652.2222 23950.0000  1.26%     -    0s
     0     0 23949.5693    0  109 23652.2222 23949.5693  1.26%     -    1s
     0     0 23948.8742    0  127 23652.2222 23948.8742  1.25%     -    1s
H    0     0                    23766.111111 23948.8639  0.77%     -    1s
     0     0 23948.8639    0  111 23766.1111 23948.8639  0.77%     -    1s

Cutting planes:
  Cover: 2
  Implied bound: 6
  MIR: 16
  Flow cover: 97
  Relax-and-lift: 1

Explored 1 nodes (8136 simplex iterations) in 1.17 seconds (2.00 work units)
Thread count was 20 (of 20 available processors)

Solution count 2: 23766.1 23652.2 

Optimal solution found (tolerance 1.00e-02)
Best objective 2.376611111111e+04, best bound 2.394886389495e+04, gap 0.7690%

User-callback calls 1277, time in user-callback 0.00 sec
Set parameter TimeLimit to value 35979
Gurobi Optimizer version 9.5.2 build v9.5.2rc0 (win64)
Thread count: 10 physical cores, 20 logical processors, using up to 20 threads
Optimize a model with 28698 rows, 9529 columns and 94344 nonzeros
Model fingerprint: 0x03d7bef9
Variable types: 8233 continuous, 1296 integer (1296 binary)
Coefficient statistics:
  Matrix range     [1e-02, 5e+03]
  Objective range  [1e+00, 1e+00]
  Bounds range     [1e+03, 1e+03]
  RHS range        [1e+00, 2e+03]

MIP start from previous solve produced solution with objective 23766.1 (0.02s)
Loaded MIP start from previous solve with objective 23766.1


Explored 0 nodes (0 simplex iterations) in 0.02 seconds (0.05 work units)
Thread count was 1 (of 20 available processors)

Solution count 1: 23766.1 

Optimal solution found (tolerance 1.00e-02)
Best objective 2.376611111111e+04, best bound 2.400000000000e+04, gap 0.9841%

User-callback calls 28, time in user-callback 0.00 sec
Gurobi Optimizer version 9.5.2 build v9.5.2rc0 (win64)
Thread count: 10 physical cores, 20 logical processors, using up to 20 threads
Optimize a model with 30259 rows, 10033 columns and 99503 nonzeros
Model fingerprint: 0xb54082ad
Variable types: 8689 continuous, 1344 integer (1344 binary)
Coefficient statistics:
  Matrix range     [1e-02, 5e+03]
  Objective range  [1e+00, 1e+00]
  Bounds range     [1e+03, 1e+03]
  RHS range        [1e+00, 2e+03]

MIP start from previous solve produced solution with objective 23751.1 (0.03s)
Loaded MIP start from previous solve with objective 23751.1

Presolve removed 20529 rows and 5553 columns
Presolve time: 0.23s
Presolved: 9730 rows, 4480 columns, 42955 nonzeros
Variable types: 4128 continuous, 352 integer (338 binary)

Explored 0 nodes (0 simplex iterations) in 0.29 seconds (0.40 work units)
Thread count was 20 (of 20 available processors)

Solution count 2: 23751.1 -23751.1 

Optimal solution found (tolerance 1.00e-02)
Best objective 2.375111111111e+04, best bound 2.395000000000e+04, gap 0.8374%

User-callback calls 1135, time in user-callback 0.00 sec
Set parameter TimeLimit to value 35978
Gurobi Optimizer version 9.5.2 build v9.5.2rc0 (win64)
Thread count: 10 physical cores, 20 logical processors, using up to 20 threads
Optimize a model with 31820 rows, 10537 columns and 104662 nonzeros
Model fingerprint: 0xa3ac408a
Variable types: 9145 continuous, 1392 integer (1392 binary)
Coefficient statistics:
  Matrix range     [1e-02, 5e+03]
  Objective range  [1e+00, 1e+00]
  Bounds range     [1e+03, 1e+03]
  RHS range        [1e+00, 2e+03]

MIP start from previous solve produced solution with objective 23691.1 (0.04s)
Loaded MIP start from previous solve with objective 23691.1

Presolve removed 21558 rows and 5838 columns
Presolve time: 0.24s
Presolved: 10262 rows, 4699 columns, 45336 nonzeros
Variable types: 4344 continuous, 355 integer (341 binary)

Root relaxation: objective 2.395000e+04, 5554 iterations, 0.47 seconds (1.07 work units)

    Nodes    |    Current Node    |     Objective Bounds      |     Work
 Expl Unexpl |  Obj  Depth IntInf | Incumbent    BestBd   Gap | It/Node Time

     0     0 23950.0000    0   60 23691.1111 23950.0000  1.09%     -    0s
     0     0 23926.3971    0  124 23691.1111 23926.3971  0.99%     -    1s

Cutting planes:
  Gomory: 4
  Cover: 2
  Implied bound: 25
  MIR: 78
  Flow cover: 228
  Relax-and-lift: 14

Explored 1 nodes (9145 simplex iterations) in 1.34 seconds (2.45 work units)
Thread count was 20 (of 20 available processors)

Solution count 1: 23691.1 

Optimal solution found (tolerance 1.00e-02)
Best objective 2.369111111111e+04, best bound 2.392639713913e+04, gap 0.9931%

User-callback calls 1263, time in user-callback 0.00 sec
